50
    1   447   274
    2   483    71
    3   425    61
    4   109   158
    5    14    35
    6   498   292
    7    34    60
    8   304   370
    9   495    84
   10   243   389
   11   400     6
   12    32   466
   13   112   419
   14    35   139
   15   336   383
   16   309    27
   17   235   396
   18    99   411
   19   427   128
   20   466   433
   21   454   176
   22   280   254
   23   177   279
   24   329    89
   25   370   407
   26   203   127
   27   457   433
   28    20   126
   29    23   124
   30   177   462
   31    90    96
   32   125   470
   33   189   382
   34   156    16
   35   180   395
   36   354   260
   37   446   423
   38   444    35
   39   451   223
   40   476    17
   41    17   258
   42    18   388
   43   102   489
   44   164    20
   45   339   398
   46    96   345
   47   409   376
   48   317   276
   49   109   438
   50   230   163
6273
